
Gurobi 7.5.2 (linux64) logging started Sat Jun 23 16:43:35 2018

Changed value of parameter LogFile to result/ilp/simNo_9-n_100-m_40-s_4-minVAF_0.05-cov_2000-k_2-fn_0.25-fp_0.0001-na_0.15.ILP.gurobiSolverLog
   Prev: gurobi.log  Default: 
Changed value of parameter TimeLimit to 86400.0
   Prev: 1e+100  Min: 0.0  Max: 1e+100  Default: 1e+100
Optimize a model with 1265601 rows, 330440 columns and 3489120 nonzeros
Variable types: 0 continuous, 330440 integer (330440 binary)
Coefficient statistics:
  Matrix range     [3e-03, 3e+00]
  Objective range  [1e+00, 2e+01]
  Bounds range     [1e+00, 1e+00]
  RHS range        [3e-01, 2e+00]
Found heuristic solution: objective -11002.35653
Presolve removed 344403 rows and 215973 columns (presolve time = 6s) ...
Presolve removed 344857 rows and 215973 columns (presolve time = 10s) ...
Presolve removed 344857 rows and 215973 columns (presolve time = 15s) ...
Presolve removed 344857 rows and 215973 columns (presolve time = 20s) ...
Presolve removed 344857 rows and 215973 columns (presolve time = 25s) ...
Presolve removed 344857 rows and 215973 columns (presolve time = 30s) ...
Presolve removed 344857 rows and 215973 columns (presolve time = 35s) ...
Presolve removed 344857 rows and 215973 columns (presolve time = 40s) ...
Presolve removed 344857 rows and 215973 columns (presolve time = 45s) ...
Presolve removed 344857 rows and 215973 columns
Presolve time: 47.10s
Presolved: 920744 rows, 114467 columns, 2553990 nonzeros
Variable types: 0 continuous, 114467 integer (114467 binary)
Presolved: 114467 rows, 1035211 columns, 2668457 nonzeros

Presolve removed 114467 rows and 1035211 columns

Root simplex log...

Iteration    Objective       Primal Inf.    Dual Inf.      Time
       0    3.3024536e+01   0.000000e+00   7.873800e+04     58s
    7645   -1.7130256e+02   0.000000e+00   1.573355e+05     60s
   17851   -2.5796785e+02   0.000000e+00   2.370768e+05     65s
   28624   -2.8300930e+02   0.000000e+00   4.833191e+05     70s
   38830   -2.9996976e+02   0.000000e+00   3.317749e+05     75s
   49036   -3.2329581e+02   0.000000e+00   1.073826e+06     80s
   56407   -3.3679770e+02   0.000000e+00   1.550023e+05     85s
   67638   -3.5791003e+02   4.081779e-02   0.000000e+00     91s
   67639   -3.5791003e+02   0.000000e+00   0.000000e+00     91s
   67639   -3.5791003e+02   0.000000e+00   0.000000e+00     94s

Root relaxation: objective -3.579100e+02, 67639 iterations, 43.43 seconds
Total elapsed time = 96.43s
Total elapsed time = 159.84s
Total elapsed time = 193.60s
Total elapsed time = 219.84s

    Nodes    |    Current Node    |     Objective Bounds      |     Work
 Expl Unexpl |  Obj  Depth IntInf | Incumbent    BestBd   Gap | It/Node Time

     0     0 -357.91003    0 1208 -11002.357 -357.91003  96.7%     -  233s
H    0     0                    -2138.173532 -357.91003  83.3%     -  262s
H    0     0                    -914.6926456 -357.91003  60.9%     -  265s
H    0     0                    -494.5319072 -357.91003  27.6%     -  273s
     0     0 -362.63075    0 1242 -494.53191 -362.63075  26.7%     -  344s
H    0     0                    -452.7686226 -362.63075  19.9%     -  368s
     0     0 -365.25816    0 1242 -452.76862 -365.25816  19.3%     -  421s
H    0     0                    -449.2190347 -365.25816  18.7%     -  436s
     0     0 -365.49202    0 1246 -449.21903 -365.49202  18.6%     -  448s
     0     0 -366.11260    0 1400 -449.21903 -366.11260  18.5%     -  534s
H    0     0                    -438.5613996 -366.11260  16.5%     -  571s
     0     0 -366.11260    0 1405 -438.56140 -366.11260  16.5%     -  593s
     0     0 -367.95347    0 1409 -438.56140 -367.95347  16.1%     -  637s
     0     0 -367.97492    0 1416 -438.56140 -367.97492  16.1%     -  692s
     0     0 -367.97492    0 1418 -438.56140 -367.97492  16.1%     -  701s
     0     0 -369.83474    0 1405 -438.56140 -369.83474  15.7%     -  742s
     0     0 -369.83474    0 1407 -438.56140 -369.83474  15.7%     -  787s
     0     0 -371.92143    0 1329 -438.56140 -371.92143  15.2%     -  821s
     0     0 -371.95435    0 1356 -438.56140 -371.95435  15.2%     -  847s
     0     0 -371.95435    0 1347 -438.56140 -371.95435  15.2%     -  857s
     0     0 -372.55294    0 1351 -438.56140 -372.55294  15.1%     -  881s
     0     0 -372.69601    0 1362 -438.56140 -372.69601  15.0%     -  919s
     0     0 -372.69970    0 1359 -438.56140 -372.69970  15.0%     -  929s
     0     0 -372.74611    0 1363 -438.56140 -372.74611  15.0%     -  942s
     0     0 -372.74611    0 1365 -438.56140 -372.74611  15.0%     -  951s
     0     0 -374.39310    0 1334 -438.56140 -374.39310  14.6%     -  993s
     0     0 -374.39310    0 1328 -438.56140 -374.39310  14.6%     - 1031s
     0     0 -375.57068    0 1365 -438.56140 -375.57068  14.4%     - 1084s
     0     0 -375.68589    0 1414 -438.56140 -375.68589  14.3%     - 1126s
     0     0 -375.81408    0 1420 -438.56140 -375.81408  14.3%     - 1144s
     0     0 -375.82921    0 1425 -438.56140 -375.82921  14.3%     - 1154s
     0     0 -375.82921    0 1427 -438.56140 -375.82921  14.3%     - 1162s
     0     0 -376.61548    0 1253 -438.56140 -376.61548  14.1%     - 1193s
     0     0 -376.84484    0 1411 -438.56140 -376.84484  14.1%     - 1212s
     0     0 -376.84484    0 1423 -438.56140 -376.84484  14.1%     - 1221s
     0     0 -377.16863    0 1417 -438.56140 -377.16863  14.0%     - 1248s
     0     0 -377.25984    0 1406 -438.56140 -377.25984  14.0%     - 1301s
     0     0 -377.28350    0 1415 -438.56140 -377.28350  14.0%     - 1315s
     0     0 -377.31923    0 1417 -438.56140 -377.31923  14.0%     - 1329s
     0     0 -377.34305    0 1420 -438.56140 -377.34305  14.0%     - 1341s
     0     0 -377.83149    0 1427 -438.56140 -377.83149  13.8%     - 1372s
     0     0 -377.84295    0 1432 -438.56140 -377.84295  13.8%     - 1417s
     0     0 -377.84295    0 1433 -438.56140 -377.84295  13.8%     - 1427s
     0     0 -379.55483    0 1453 -438.56140 -379.55483  13.5%     - 1510s
     0     0 -379.61444    0 1432 -438.56140 -379.61444  13.4%     - 1557s
     0     0 -379.61444    0 1388 -438.56140 -379.61444  13.4%     - 1569s
     0     0 -380.66961    0 1260 -438.56140 -380.66961  13.2%     - 1676s
     0     0 -381.10227    0 1464 -438.56140 -381.10227  13.1%     - 1764s
     0     0 -381.10227    0 1461 -438.56140 -381.10227  13.1%     - 1780s
     0     0 -382.31106    0 1450 -438.56140 -382.31106  12.8%     - 1871s
     0     0 -382.45754    0 1442 -438.56140 -382.45754  12.8%     - 1931s
     0     0 -382.70197    0 1440 -438.56140 -382.70197  12.7%     - 1948s
     0     0 -382.70197    0 1445 -438.56140 -382.70197  12.7%     - 1960s
     0     0 -383.77495    0 1309 -438.56140 -383.77495  12.5%     - 2010s
     0     0 -383.87713    0 1365 -438.56140 -383.87713  12.5%     - 2060s
     0     0 -383.95959    0 1358 -438.56140 -383.95959  12.5%     - 2076s
     0     0 -383.96319    0 1372 -438.56140 -383.96319  12.4%     - 2088s
     0     0 -383.96520    0 1366 -438.56140 -383.96520  12.4%     - 2099s
     0     0 -384.98290    0 1301 -438.56140 -384.98290  12.2%     - 2169s
     0     0 -385.24654    0 1432 -438.56140 -385.24654  12.2%     - 2224s
     0     0 -385.25622    0 1453 -438.56140 -385.25622  12.2%     - 2247s
     0     0 -385.28267    0 1451 -438.56140 -385.28267  12.1%     - 2264s
     0     0 -385.32135    0 1452 -438.56140 -385.32135  12.1%     - 2278s
     0     0 -385.39288    0 1454 -438.56140 -385.39288  12.1%     - 2292s
     0     0 -385.39288    0 1455 -438.56140 -385.39288  12.1%     - 2303s
     0     0 -386.59857    0 1414 -438.56140 -386.59857  11.8%     - 2397s
     0     0 -386.85289    0 1415 -438.56140 -386.85289  11.8%     - 2473s
     0     0 -387.13416    0 1464 -438.56140 -387.13416  11.7%     - 2497s
     0     0 -387.13539    0 1461 -438.56140 -387.13539  11.7%     - 2511s
     0     0 -388.71219    0 1470 -438.56140 -388.71219  11.4%     - 2665s
     0     0 -388.97765    0 1424 -438.56140 -388.97765  11.3%     - 2732s
     0     0 -389.29283    0 1409 -438.56140 -389.29283  11.2%     - 2756s
     0     0 -389.33257    0 1413 -438.56140 -389.33257  11.2%     - 2773s
     0     0 -389.35785    0 1416 -438.56140 -389.35785  11.2%     - 2786s
     0     0 -389.36582    0 1416 -438.56140 -389.36582  11.2%     - 2797s
     0     0 -389.36812    0 1415 -438.56140 -389.36812  11.2%     - 2807s
     0     0 -389.88650    0 1385 -438.56140 -389.88650  11.1%     - 2884s
     0     0 -389.89891    0 1394 -438.56140 -389.89891  11.1%     - 2946s
     0     0 -390.00396    0 1394 -438.56140 -390.00396  11.1%     - 2966s
     0     0 -390.01902    0 1411 -438.56140 -390.01902  11.1%     - 2979s
     0     0 -390.12658    0 1387 -438.56140 -390.12658  11.0%     - 2993s
     0     0 -390.19471    0 1408 -438.56140 -390.19471  11.0%     - 3009s
     0     0 -390.19900    0 1415 -438.56140 -390.19900  11.0%     - 3025s
     0     0 -390.19900    0 1415 -438.56140 -390.19900  11.0%     - 3035s
     0     0 -391.54645    0 1448 -438.56140 -391.54645  10.7%     - 3099s
     0     0 -391.57948    0 1521 -438.56140 -391.57948  10.7%     - 3166s
     0     0 -391.58612    0 1464 -438.56140 -391.58612  10.7%     - 3182s
     0     0 -391.60867    0 1457 -438.56140 -391.60867  10.7%     - 3199s
     0     0 -391.63109    0 1458 -438.56140 -391.63109  10.7%     - 3218s
     0     0 -391.63109    0 1460 -438.56140 -391.63109  10.7%     - 3228s
     0     0 -392.81182    0 1269 -438.56140 -392.81182  10.4%     - 3364s
     0     0 -393.31210    0 1437 -438.56140 -393.31210  10.3%     - 3495s
     0     0 -393.33578    0 1416 -438.56140 -393.33578  10.3%     - 3534s
     0     0 -393.34713    0 1425 -438.56140 -393.34713  10.3%     - 3554s
     0     0 -393.35046    0 1424 -438.56140 -393.35046  10.3%     - 3564s
     0     0 -394.23239    0 1469 -438.56140 -394.23239  10.1%     - 3650s
     0     0 -394.24179    0 1484 -438.56140 -394.24179  10.1%     - 3713s
     0     0 -394.24223    0 1483 -438.56140 -394.24223  10.1%     - 3723s
     0     0 -395.03006    0 1479 -438.56140 -395.03006  9.93%     - 3784s
     0     0 -395.20048    0 1496 -438.56140 -395.20048  9.89%     - 3856s
     0     0 -395.27232    0 1487 -438.56140 -395.27232  9.87%     - 3875s
     0     0 -395.31853    0 1478 -438.56140 -395.31853  9.86%     - 3893s
     0     0 -395.33109    0 1497 -438.56140 -395.33109  9.86%     - 3907s
     0     0 -395.35226    0 1499 -438.56140 -395.35226  9.85%     - 3922s
     0     0 -395.35226    0 1499 -438.56140 -395.35226  9.85%     - 3931s
     0     0 -395.92811    0 1346 -438.56140 -395.92811  9.72%     - 3961s
     0     0 -396.19495    0 1414 -438.56140 -396.19495  9.66%     - 4019s
     0     0 -396.25313    0 1495 -438.56140 -396.25313  9.65%     - 4038s
     0     0 -396.27289    0 1489 -438.56140 -396.27289  9.64%     - 4057s
     0     0 -396.28861    0 1500 -438.56140 -396.28861  9.64%     - 4070s
     0     0 -396.28906    0 1503 -438.56140 -396.28906  9.64%     - 4080s
     0     0 -397.24981    0 1443 -438.56140 -397.24981  9.42%     - 4125s
     0     0 -397.28165    0 1495 -438.56140 -397.28165  9.41%     - 4179s
     0     0 -397.28855    0 1495 -438.56140 -397.28855  9.41%     - 4193s
     0     0 -397.29404    0 1499 -438.56140 -397.29404  9.41%     - 4205s
     0     0 -397.29527    0 1501 -438.56140 -397.29527  9.41%     - 4217s
     0     0 -397.83798    0 1470 -438.56140 -397.83798  9.29%     - 4266s
     0     0 -398.04545    0 1475 -438.56140 -398.04545  9.24%     - 4338s
     0     0 -398.14687    0 1476 -438.56140 -398.14687  9.22%     - 4358s
     0     0 -398.16187    0 1488 -438.56140 -398.16187  9.21%     - 4371s
     0     0 -398.18635    0 1482 -438.56140 -398.18635  9.21%     - 4388s
     0     0 -398.19343    0 1503 -438.56140 -398.19343  9.20%     - 4400s
     0     0 -398.19492    0 1500 -438.56140 -398.19492  9.20%     - 4413s
     0     0 -399.82964    0 1481 -438.56140 -399.82964  8.83%     - 4514s
     0     0 -399.95946    0 1494 -438.56140 -399.95946  8.80%     - 4580s
     0     0 -400.02850    0 1471 -438.56140 -400.02850  8.79%     - 4602s
     0     0 -400.03921    0 1490 -438.56140 -400.03921  8.78%     - 4619s
     0     0 -400.04214    0 1499 -438.56140 -400.04214  8.78%     - 4633s
     0     0 -400.21366    0 1471 -438.56140 -400.21366  8.74%     - 4675s
     0     0 -400.22950    0 1483 -438.56140 -400.22950  8.74%     - 4745s
     0     0 -400.38470    0 1501 -438.56140 -400.38470  8.70%     - 4773s
     0     0 -400.45796    0 1494 -438.56140 -400.45796  8.69%     - 4793s
     0     0 -400.46955    0 1492 -438.56140 -400.46955  8.69%     - 4806s
     0     0 -400.47951    0 1499 -438.56140 -400.47951  8.68%     - 4820s
     0     0 -400.48057    0 1499 -438.56140 -400.48057  8.68%     - 4832s
     0     0 -401.27337    0 1499 -438.56140 -401.27337  8.50%     - 4871s
     0     0 -401.32534    0 1504 -438.56140 -401.32534  8.49%     - 4929s
     0     0 -401.44795    0 1489 -438.56140 -401.44795  8.46%     - 4946s
     0     0 -401.51298    0 1491 -438.56140 -401.51298  8.45%     - 4963s
     0     0 -401.52440    0 1492 -438.56140 -401.52440  8.45%     - 4973s
     0     0 -401.52641    0 1494 -438.56140 -401.52641  8.44%     - 4984s
     0     0 -401.73834    0 1468 -438.56140 -401.73834  8.40%     - 5021s
     0     0 -402.14855    0 1476 -438.56140 -402.14855  8.30%     - 5077s
     0     0 -402.18384    0 1480 -438.56140 -402.18384  8.29%     - 5099s
     0     0 -402.24036    0 1512 -438.56140 -402.24036  8.28%     - 5116s
     0     0 -402.25184    0 1513 -438.56140 -402.25184  8.28%     - 5130s
     0     0 -402.25839    0 1513 -438.56140 -402.25839  8.28%     - 5144s
     0     0 -402.27005    0 1511 -438.56140 -402.27005  8.28%     - 5158s
     0     0 -402.27871    0 1512 -438.56140 -402.27871  8.27%     - 5167s
     0     0 -402.27871    0 1512 -438.56140 -402.27871  8.27%     - 5176s
     0     0 -402.83178    0 1504 -438.56140 -402.83178  8.15%     - 5210s
     0     0 -403.09324    0 1501 -438.56140 -403.09324  8.09%     - 5275s
     0     0 -403.14557    0 1496 -438.56140 -403.14557  8.08%     - 5292s
     0     0 -403.15792    0 1495 -438.56140 -403.15792  8.07%     - 5306s
     0     0 -403.15912    0 1504 -438.56140 -403.15912  8.07%     - 5317s
     0     0 -403.99156    0 1476 -438.56140 -403.99156  7.88%     - 5361s
     0     0 -404.03930    0 1464 -438.56140 -404.03930  7.87%     - 5418s
     0     0 -404.04175    0 1483 -438.56140 -404.04175  7.87%     - 5431s
     0     0 -404.86343    0 1427 -438.56140 -404.86343  7.68%     - 5481s
     0     0 -405.00655    0 1470 -438.56140 -405.00655  7.65%     - 5537s
     0     0 -405.04754    0 1462 -438.56140 -405.04754  7.64%     - 5556s
     0     0 -405.04986    0 1477 -438.56140 -405.04986  7.64%     - 5570s
     0     0 -405.65828    0 1475 -438.56140 -405.65828  7.50%     - 5623s
     0     0 -405.74197    0 1468 -438.56140 -405.74197  7.48%     - 5677s
     0     0 -405.80411    0 1475 -438.56140 -405.80411  7.47%     - 5693s
     0     0 -405.80411    0 1490 -438.56140 -405.80411  7.47%     - 5703s
     0     0 -405.83275    0 1492 -438.56140 -405.83275  7.46%     - 5735s
     0     0 -405.94069    0 1497 -438.56140 -405.94069  7.44%     - 5790s
     0     0 -405.96044    0 1502 -438.56140 -405.96044  7.43%     - 5804s
     0     0 -405.96467    0 1504 -438.56140 -405.96467  7.43%     - 5815s
     0     0 -406.41415    0 1494 -438.56140 -406.41415  7.33%     - 5857s
     0     0 -406.48676    0 1503 -438.56140 -406.48676  7.31%     - 5914s
     0     0 -406.50186    0 1505 -438.56140 -406.50186  7.31%     - 5926s
     0     0 -406.50966    0 1505 -438.56140 -406.50966  7.31%     - 5938s
     0     0 -406.51065    0 1504 -438.56140 -406.51065  7.31%     - 5948s
     0     0 -407.16042    0 1403 -438.56140 -407.16042  7.16%     - 5993s
     0     0 -407.31172    0 1412 -438.56140 -407.31172  7.13%     - 6046s
     0     0 -407.34210    0 1491 -438.56140 -407.34210  7.12%     - 6065s
     0     0 -407.35140    0 1495 -438.56140 -407.35140  7.12%     - 6078s
     0     0 -407.37929    0 1493 -438.56140 -407.37929  7.11%     - 6099s
     0     0 -407.38034    0 1495 -438.56140 -407.38034  7.11%     - 6112s
     0     0 -408.01676    0 1535 -438.56140 -408.01676  6.96%     - 6154s
     0     0 -408.07359    0 1554 -438.56140 -408.07359  6.95%     - 6218s
     0     0 -408.11143    0 1554 -438.56140 -408.11143  6.94%     - 6235s
     0     0 -408.12235    0 1554 -438.56140 -408.12235  6.94%     - 6248s
     0     0 -408.12918    0 1555 -438.56140 -408.12918  6.94%     - 6261s
     0     0 -408.13034    0 1555 -438.56140 -408.13034  6.94%     - 6272s
     0     0 -408.47502    0 1554 -438.56140 -408.47502  6.86%     - 6311s
     0     0 -408.57438    0 1438 -438.56140 -408.57438  6.84%     - 6374s
     0     0 -408.58662    0 1559 -438.56140 -408.58662  6.83%     - 6387s
     0     0 -408.58662    0 1561 -438.56140 -408.58662  6.83%     - 6395s
     0     0 -408.87872    0 1444 -438.56140 -408.87872  6.77%     - 6436s
     0     0 -409.04512    0 1549 -438.56140 -409.04512  6.73%     - 6463s
     0     0 -409.08407    0 1557 -438.56140 -409.08407  6.72%     - 6477s
     0     0 -409.08814    0 1557 -438.56140 -409.08814  6.72%     - 6488s
     0     0 -409.51393    0 1548 -438.56140 -409.51393  6.62%     - 6524s
     0     0 -409.58596    0 1555 -438.56140 -409.58596  6.61%     - 6587s
     0     0 -409.63525    0 1547 -438.56140 -409.63525  6.60%     - 6601s
     0     0 -409.64984    0 1545 -438.56140 -409.64984  6.59%     - 6612s
     0     0 -409.65005    0 1546 -438.56140 -409.65005  6.59%     - 6621s
     0     0 -409.91623    0 1468 -438.56140 -409.91623  6.53%     - 6659s
     0     0 -410.00045    0 1472 -438.56140 -410.00045  6.51%     - 6702s
     0     0 -410.06036    0 1485 -438.56140 -410.06036  6.50%     - 6720s
     0     0 -410.07244    0 1484 -438.56140 -410.07244  6.50%     - 6732s
     0     0 -410.07699    0 1484 -438.56140 -410.07699  6.49%     - 6744s
     0     0 -410.64798    0 1477 -438.56140 -410.64798  6.36%     - 6787s
     0     0 -410.88610    0 1534 -438.56140 -410.88610  6.31%     - 6847s
     0     0 -410.92553    0 1537 -438.56140 -410.92553  6.30%     - 6863s
     0     0 -410.98927    0 1544 -438.56140 -410.98927  6.29%     - 6876s
     0     0 -411.01099    0 1540 -438.56140 -411.01099  6.28%     - 6892s
     0     0 -411.03485    0 1537 -438.56140 -411.03485  6.28%     - 6905s
     0     0 -411.03668    0 1550 -438.56140 -411.03668  6.28%     - 6915s
     0     0 -411.49159    0 1623 -438.56140 -411.49159  6.17%     - 6946s
     0     0 -411.56757    0 1625 -438.56140 -411.56757  6.16%     - 7004s
     0     0 -411.59599    0 1621 -438.56140 -411.59599  6.15%     - 7017s
     0     0 -411.59644    0 1625 -438.56140 -411.59644  6.15%     - 7026s
     0     0 -411.69164    0 1623 -438.56140 -411.69164  6.13%     - 7057s
     0     0 -411.73361    0 1632 -438.56140 -411.73361  6.12%     - 7121s
     0     0 -411.74419    0 1631 -438.56140 -411.74419  6.11%     - 7132s
     0     0 -411.75189    0 1629 -438.56140 -411.75189  6.11%     - 7142s
     0     0 -411.75320    0 1632 -438.56140 -411.75320  6.11%     - 7151s
     0     0 -411.75320    0 1629 -438.56140 -411.75320  6.11%     - 7172s
     0     0 -411.75320    0 1631 -438.56140 -411.75320  6.11%     - 7218s
     0     0 -411.84100    0 1615 -438.56140 -411.84100  6.09%     - 7244s
     0     0 -411.90530    0 1629 -438.56140 -411.90530  6.08%     - 7299s
     0     0 -412.00759    0 1626 -438.56140 -412.00759  6.05%     - 7314s
     0     0 -412.01388    0 1635 -438.56140 -412.01388  6.05%     - 7323s
     0     0 -412.02757    0 1635 -438.56140 -412.02757  6.05%     - 7336s
     0     0 -412.03554    0 1636 -438.56140 -412.03554  6.05%     - 7345s
     0     0 -412.03790    0 1639 -438.56140 -412.03790  6.05%     - 7353s
     0     0 -412.05332    0 1638 -438.56140 -412.05332  6.04%     - 7375s
     0     0 -412.11407    0 1641 -438.56140 -412.11407  6.03%     - 7428s
     0     0 -412.11842    0 1640 -438.56140 -412.11842  6.03%     - 7436s
     0     0 -412.19109    0 1572 -438.56140 -412.19109  6.01%     - 7459s
     0     0 -412.25682    0 1501 -438.56140 -412.25682  6.00%     - 7517s
     0     0 -412.26904    0 1567 -438.56140 -412.26904  6.00%     - 7529s
     0     0 -412.26976    0 1569 -438.56140 -412.26976  5.99%     - 7538s
     0     0 -412.40633    0 1486 -438.56140 -412.40633  5.96%     - 7562s
     0     0 -412.41674    0 1562 -438.56140 -412.41674  5.96%     - 7594s
     0     0 -412.44029    0 1625 -438.56140 -412.44029  5.96%     - 7606s
     0     0 -412.44495    0 1629 -438.56140 -412.44495  5.96%     - 7616s
     0     0 -412.46938    0 1626 -438.56140 -412.46938  5.95%     - 7641s
     0     0 -412.47678    0 1636 -438.56140 -412.47678  5.95%     - 7688s
     0     0 -412.48175    0 1636 -438.56140 -412.48175  5.95%     - 7698s
     0     0 -412.64640    0 1629 -438.56140 -412.64640  5.91%     - 7727s
     0     0 -412.78150    0 1626 -438.56140 -412.78150  5.88%     - 7752s
     0     0 -412.83883    0 1628 -438.56140 -412.83883  5.87%     - 7766s
     0     0 -412.85276    0 1638 -438.56140 -412.85276  5.86%     - 7776s
     0     0 -412.85574    0 1639 -438.56140 -412.85574  5.86%     - 7785s
     0     0 -413.31656    0 1546 -438.56140 -413.31656  5.76%     - 7813s
     0     0 -413.44127    0 1479 -438.56140 -413.44127  5.73%     - 7868s
     0     0 -413.44825    0 1494 -438.56140 -413.44825  5.73%     - 7879s
     0     0 -413.45499    0 1493 -438.56140 -413.45499  5.72%     - 7890s
     0     0 -413.45548    0 1495 -438.56140 -413.45548  5.72%     - 7899s
     0     0 -413.62176    0 1626 -438.56140 -413.62176  5.69%     - 7928s
     0     0 -413.68577    0 1623 -438.56140 -413.68577  5.67%     - 7978s
     0     0 -413.69712    0 1631 -438.56140 -413.69712  5.67%     - 7988s
     0     0 -413.70393    0 1630 -438.56140 -413.70393  5.67%     - 7997s
     0     0 -413.70429    0 1634 -438.56140 -413.70429  5.67%     - 8004s
     0     0 -413.70429    0 1633 -438.56140 -413.70429  5.67%     - 8024s
     0     0 -413.77345    0 1563 -438.56140 -413.77345  5.65%     - 8047s
     0     0 -413.86463    0 1551 -438.56140 -413.86463  5.63%     - 8064s
     0     0 -413.88851    0 1556 -438.56140 -413.88851  5.63%     - 8076s
     0     0 -413.89459    0 1561 -438.56140 -413.89459  5.62%     - 8087s
     0     0 -413.90058    0 1559 -438.56140 -413.90058  5.62%     - 8099s
     0     0 -413.90698    0 1558 -438.56140 -413.90698  5.62%     - 8108s
     0     0 -413.90919    0 1559 -438.56140 -413.90919  5.62%     - 8116s
     0     0 -414.06755    0 1553 -438.56140 -414.06755  5.59%     - 8143s
     0     0 -414.10019    0 1628 -438.56140 -414.10019  5.58%     - 8180s
     0     0 -414.10886    0 1629 -438.56140 -414.10886  5.58%     - 8191s
     0     0 -414.11871    0 1633 -438.56140 -414.11871  5.57%     - 8200s
     0     0 -414.12175    0 1638 -438.56140 -414.12175  5.57%     - 8209s
     0     0 -414.13222    0 1558 -438.56140 -414.13222  5.57%     - 8230s
     0     0 -414.13885    0 1635 -438.56140 -414.13885  5.57%     - 8256s
     0     0 -414.13955    0 1632 -438.56140 -414.13955  5.57%     - 8266s
     0     0 -414.14004    0 1637 -438.56140 -414.14004  5.57%     - 8287s
     0     0 -414.14004    0 1582 -438.56140 -414.14004  5.57%     - 8412s
     0     2 -414.14241    0 1572 -438.56140 -414.14241  5.57%     - 8521s
     1     3 -414.53118    1 1373 -438.56140 -414.15206  5.57%  2051 8536s
     2     4 -414.94763    2 1278 -438.56140 -414.15206  5.57%  1526 8556s
     3     5 -417.70334    3 1166 -438.56140 -414.15206  5.57%  1897 8592s
     4     6 -416.59321    3 1206 -438.56140 -414.15206  5.57%  2176 8624s
     6     8 -417.22347    5 1202 -438.56140 -414.15206  5.57%  1794 8654s
     7     9 -417.23994    6 1204 -438.56140 -414.15206  5.57%  1579 8658s
     8    10 -417.39080    7 1111 -438.56140 -414.15206  5.57%  1514 8678s
     9    11 -423.05980    8 2294 -438.56140 -414.15206  5.57%  1538 8711s
    10    12 -422.55632    8 2322 -438.56140 -414.15206  5.57%  2066 8750s
    12    14 -425.73617   10 1063 -438.56140 -414.15206  5.57%  1786 8764s
    13    15 -429.31275   10 1066 -438.56140 -414.15206  5.57%  1860 8781s
    14    16 -432.17402   11 1067 -438.56140 -414.15206  5.57%  1754 8786s
    15    15     cutoff   11      -438.56140 -414.15206  5.57%  1769 8799s
    16    16 -435.75060   12 1064 -438.56140 -414.15206  5.57%  1719 8804s
    17    15     cutoff   13      -438.56140 -414.15206  5.57%  1624 8806s
    19    13     cutoff   12      -438.56140 -414.15206  5.57%  1579 8819s
    20    14 -415.76677    1 1158 -438.56140 -414.53278  5.48%  1621 8852s
    21    15 -421.72686    2 1317 -438.56140 -414.53278  5.48%  2665 9247s
    22    16 -421.58351    2 1242 -438.56140 -414.53278  5.48%  2746 9283s
    23    17 -432.38274    3 1299 -438.56140 -414.53278  5.48%  3570 9652s
    24    18 -422.28086    3 1224 -438.56140 -414.53278  5.48%  3452 9661s
    25    19 -433.31248    4 1297 -438.56140 -414.53278  5.48%  4114 10016s
    26    20 -423.92583    4 1278 -438.56140 -414.53278  5.48%  4475 10191s
    27    21 -436.36399    5 1312 -438.56140 -414.53278  5.48%  6676 11364s
    28    22 -424.54207    5 1257 -438.56140 -414.53278  5.48%  6760 11473s
    29    21     cutoff    6      -438.56140 -414.53278  5.48%  6754 11566s
    30    22 -425.56200    6 1308 -438.56140 -414.53278  5.48%  7094 11804s
    31    23 -425.63603    7 1320 -438.56140 -414.53278  5.48%  6900 11816s
    32    24 -426.09267    8 2474 -438.56140 -414.53278  5.48%  6784 11858s
    33    25 -427.16504    9 1152 -438.56140 -414.53278  5.48%  6603 11869s
    34    26 -432.17226   10 1133 -438.56140 -414.53278  5.48%  6449 11883s
    35    27 -435.74884   11 1124 -438.56140 -414.53278  5.48%  6307 11897s
    36    28 -437.53713   11 1130 -438.56140 -414.53278  5.48%  6428 12030s
    37    27     cutoff   12      -438.56140 -414.53278  5.48%  6339 12067s
    39    27 -438.25245   12 1113 -438.56140 -414.53278  5.48%  6120 12095s
    42    24     cutoff   12      -438.56140 -414.53278  5.48%  5697 12100s
    43    25 -416.50565    2 1202 -438.56140 -416.50565  5.03%  5825 12193s
    44    26 -424.33718    3 1322 -438.56140 -416.50565  5.03%  6905 13130s
    45    27 -424.80177    3 1285 -438.56140 -416.59341  5.01%  7853 14143s
    46    28 -436.81695    4 1287 -438.56140 -416.59341  5.01%  7775 14208s
    47    29 -425.99967    4 1375 -438.56140 -416.59341  5.01%  8250 14689s
    48    30 -429.35810    5 1167 -438.56140 -416.59341  5.01%  8812 15259s
    49    31 -434.24609    6 1148 -438.56140 -416.59341  5.01%  8713 15301s
    50    30     cutoff    7      -438.56140 -416.59341  5.01%  8576 15319s
    51    31 -436.39204    7 1153 -438.56140 -416.59341  5.01%  8675 15495s
    52    30     cutoff    8      -438.56140 -416.59341  5.01%  8552 15516s
    53    29     cutoff    8      -438.56140 -416.59341  5.01%  9412 16534s
    54    30 -435.31907    6 1148 -438.56140 -416.59341  5.01%  9916 17116s
    55    29     cutoff    7      -438.56140 -416.59341  5.01% 10519 17911s
    56    28     cutoff    7      -438.56140 -416.59341  5.01% 11345 19026s
    57    29 -421.30859    4 1304 -438.56140 -416.59344  5.01% 11447 19149s
    58    30 -426.94741    5 1297 -438.56140 -416.59344  5.01% 11554 19382s
    59    31 -428.93775    5 1290 -438.56140 -416.59344  5.01% 11823 19781s
    60    30     cutoff    6      -438.56140 -416.59344  5.01% 13110 21533s
    61    31 -430.16957    6 1327 -438.56140 -416.59344  5.01% 13346 21904s
    62    32 -430.24132    7 1318 -438.56140 -416.59344  5.01% 13151 21914s
    63    33 -431.02480    8 1306 -438.56140 -416.59344  5.01% 13025 21988s
    64    34 -431.13592    9 1227 -438.56140 -416.59344  5.01% 12834 21993s
    65    35 -431.90871   10 1141 -438.56140 -416.59344  5.01% 12653 22002s
    66    36 -436.31983   11 1119 -438.56140 -416.59344  5.01% 12476 22011s
    67    35     cutoff   12      -438.56140 -416.59344  5.01% 12297 22015s
    69    35 -437.39281   11 1132 -438.56140 -416.59344  5.01% 12085 22125s
    70    34     cutoff   12      -438.56140 -416.59344  5.01% 11962 22150s
    71    33     cutoff   12      -438.56140 -416.59344  5.01% 12161 22560s
    72    32     cutoff   10      -438.56140 -416.59344  5.01% 12677 23453s
    73    33 -423.09859    5 1305 -438.56140 -417.22655  4.86% 12759 23659s
    74    34 -430.28555    6 1327 -438.56140 -417.22655  4.86% 13244 24466s
    75    35 -433.26071    6 1332 -438.56140 -417.22655  4.86% 14502 26830s
    76    36 -433.36123    7 1331 -438.56140 -417.22655  4.86% 14334 26841s
    77    35     cutoff    7      -438.56140 -417.22655  4.86% 15818 29557s
    78    36 -434.41441    8 1322 -438.56140 -417.22655  4.86% 16123 30127s
    79    37 -434.55242    9 1816 -438.56140 -417.22655  4.86% 15990 30177s
    80    38 -435.48530   10 1157 -438.56140 -417.22655  4.86% 15847 30234s
    81    37     cutoff   11      -438.56140 -417.22655  4.86% 15852 30434s
    82    36     cutoff   11      -438.56140 -417.22655  4.86% 15913 30774s
    83    35     cutoff   10      -438.56140 -417.22655  4.86% 17841 34891s
    84    34     cutoff    9      -438.56140 -417.22655  4.86% 19114 37936s
    85    35 -424.01479    6 1220 -438.56140 -417.24657  4.86% 19175 38262s
    86    36 -432.38311    7 1286 -438.56140 -417.24657  4.86% 19010 38311s
    87    37 -433.91980    7 1246 -438.56140 -417.24657  4.86% 19794 39905s
    88    36     cutoff    8      -438.56140 -417.24657  4.86% 21064 43010s
    89    37 -434.31049    8 2422 -438.56140 -417.24657  4.86% 21014 43215s
    90    38 -437.82130    9 1109 -438.56140 -417.24657  4.86% 20813 43254s
    92    36     cutoff   10      -438.56140 -417.24657  4.86% 20365 43256s
    93    35     cutoff    9      -438.56140 -417.24657  4.86% 21299 45524s
    94    36 -426.13636    7 1308 -438.56140 -417.70507  4.76% 21589 46380s
    95    37 -432.59717    8 1310 -438.56140 -417.70507  4.76% 21854 47112s
    96    36     cutoff    9      -438.56140 -417.70507  4.76% 22129 47873s
    97    35     cutoff    9      -438.56140 -417.70507  4.76% 23141 50599s
    98    36 -436.64674    8 1314 -438.56140 -417.70507  4.76% 24309 53493s
    99    37 -436.79908    9 1837 -438.56140 -417.70507  4.76% 24082 53550s
   100    36     cutoff   10      -438.56140 -417.70507  4.76% 24013 53720s
   101    37 -438.39301   10 1146 -438.56140 -417.70507  4.76% 23943 53938s
   102    36     cutoff   11      -438.56140 -417.70507  4.76% 23742 53960s
   104    34     cutoff    9      -438.56140 -417.70507  4.76% 24453 56713s
   105    35 -423.65746    4 1301 -438.56140 -417.70637  4.76% 24369 56920s
   106    36 -430.81063    5 1249 -438.56140 -417.70637  4.76% 24483 57538s
   107    37 -435.34097    6 1277 -438.56140 -417.70637  4.76% 24418 57772s
   108    36     cutoff    7      -438.56140 -417.70637  4.76% 24351 57995s
   109    35     cutoff    7      -438.56140 -417.70637  4.76% 24934 59749s
   110    34     cutoff    6      -438.56140 -417.70637  4.76% 25490 61530s
   111    33     cutoff    5      -438.56140 -417.70637  4.76% 26285 63929s
   112    34 -426.95922    4 1304 -438.56140 -421.72686  3.84% 26304 64301s
   113    35 -431.59926    5 1152 -438.56140 -421.72686  3.84% 26111 64350s
   114    36 -437.67945    6 1138 -438.56140 -421.72686  3.84% 25900 64370s
   115    35     cutoff    7      -438.56140 -421.72686  3.84% 25682 64376s
   117    35 -437.67945    6 1134 -438.56140 -421.72686  3.84% 25382 64583s
   118    34     cutoff    7      -438.56140 -421.72686  3.84% 25189 64603s
   119    33     cutoff    7      -438.56140 -421.72686  3.84% 25213 65071s
   120    34 -433.52582    5 1434 -438.56140 -421.72686  3.84% 25358 65718s
   121    33     cutoff    6      -438.56140 -421.72686  3.84% 25179 65752s
   122    34 -434.45538    6 1437 -438.56140 -421.72686  3.84% 25219 66237s
   123    33     cutoff    7      -438.56140 -421.72686  3.84% 25057 66277s
   124    34 -435.27772    7 1424 -438.56140 -421.72686  3.84% 25061 66650s
   125    35 -437.46006    8 1285 -438.56140 -421.72686  3.84% 24885 66679s
   126    34     cutoff    9      -438.56140 -421.72686  3.84% 24707 66696s
   128    32     cutoff    8      -438.56140 -421.72686  3.84% 24694 67557s
   129    31     cutoff    3      -438.56140 -421.73191  3.84% 25530 70465s
   130    32 -428.28393    3 1308 -438.56140 -422.55698  3.65% 25619 70996s
   131    33 -430.66832    4 1044 -438.56140 -422.55698  3.65% 25539 71193s
   132    34 -433.52958    5  935 -438.56140 -422.55698  3.65% 25471 71401s
   133    35 -434.96022    6  939 -438.56140 -422.55698  3.65% 25301 71429s
   134    36 -435.67553    6  921 -438.56140 -422.55698  3.65% 25136 71454s
   135    37 -435.19352    7  938 -438.56140 -422.55698  3.65% 24955 71461s
   136    38 -435.90884    8 1008 -438.56140 -422.55698  3.65% 24776 71467s
   137    39 -435.90884    8  874 -438.56140 -422.55698  3.65% 24600 71475s
   139    41 -436.62415   10  833 -438.56140 -422.55698  3.65% 24248 71481s
   140    42 -436.95847   11  778 -438.56140 -422.55698  3.65% 24079 71486s
   141    43 -436.99612   11  458 -438.56140 -422.55698  3.65% 23912 71491s
   142    44 -437.71143   12  657 -438.56140 -422.55698  3.65% 23748 71497s
   143    45 -437.71143   12  443 -438.56140 -422.55698  3.65% 23585 71501s
   144    44     cutoff   13      -438.56140 -422.55698  3.65% 23426 71508s
   145    45 -437.78808   13  441 -438.56140 -422.55698  3.65% 23267 71511s
   146    46 -438.05046   14  440 -438.56140 -422.55698  3.65% 23113 71517s
   147    45     cutoff   14      -438.56140 -422.55698  3.65% 22959 71520s
   148    46 -438.14811   15  437 -438.56140 -422.55698  3.65% 22808 71527s
   150    44     cutoff   16      -438.56140 -422.55698  3.65% 22510 71532s
   152    44 -424.66319    9 1117 -438.56140 -422.56933  3.65% 22224 71542s
   153    45 -427.52446   10 1092 -438.56140 -422.56933  3.65% 22085 71549s
   154    46 -431.45870   11 1095 -438.56140 -422.56933  3.65% 21950 71560s
   155    47 -436.46592   12 1078 -438.56140 -422.56933  3.65% 21820 71576s
   156    46     cutoff   13      -438.56140 -422.56933  3.65% 21684 71581s
   158    44     cutoff   12      -438.56140 -422.56933  3.65% 21422 71600s
   159    43     cutoff   11      -438.56140 -422.56933  3.65% 21297 71610s
   160    44 -433.65240    9 2552 -438.56140 -423.09015  3.53% 21237 71716s
   161    45 -434.44809   10 2527 -438.56140 -423.09015  3.53% 21111 71724s
   162    44     cutoff   11      -438.56140 -423.09015  3.53% 20983 71728s
   163    43     cutoff   10      -438.56140 -423.09015  3.53% 20858 71732s
   164    44 -435.06885   11 1933 -438.56140 -423.09015  3.53% 20741 71747s
   165    45 -437.74322   12 1298 -438.56140 -423.09015  3.53% 20624 71761s
   168    44 -435.39175   12 1896 -438.56140 -423.09015  3.53% 20258 71779s
   169    45 -436.73345   13 1946 -438.56140 -423.09015  3.53% 20144 71787s
   170    46 -436.95106   13 1277 -438.56140 -423.09015  3.53% 20038 71798s
   172    44     cutoff   14      -438.56140 -423.09015  3.53% 19806 71801s
   173    45 -437.09324   14 2049 -438.56140 -423.09015  3.53% 19695 71806s
   174    44     cutoff   14      -438.56140 -423.09015  3.53% 19588 71810s
   176    44 -437.11629   15 1973 -438.56140 -423.09015  3.53% 19368 71815s
   177    45 -437.77081   16 1387 -438.56140 -423.09015  3.53% 19264 71821s
   178    44     cutoff   16      -438.56140 -423.09015  3.53% 19158 71825s
   181    45 -437.96066   18 1347 -438.56140 -423.09015  3.53% 18845 71833s
   182    46 -438.03870   19 1275 -438.56140 -423.09015  3.53% 18742 71836s
   185    43     cutoff   20      -438.56140 -423.09015  3.53% 18441 71840s
   187    43 -433.22868    9 2544 -438.56140 -424.33751  3.24% 18335 72002s
   188    44 -434.08021   10 2505 -438.56140 -424.33751  3.24% 18244 72053s
   189    45 -434.59515   11 1924 -438.56140 -424.33751  3.24% 18154 72066s
   190    46 -434.87096   12 1870 -438.56140 -424.33751  3.24% 18060 72071s
   191    47 -436.21266   13 1908 -438.56140 -424.33751  3.24% 17972 72082s
   192    48 -437.11574   14 1930 -438.56140 -424.33751  3.24% 17881 72089s
   193    49 -437.22444   15 1942 -438.56140 -424.33751  3.24% 17791 72094s
   194    50 -437.47157   16 1968 -438.56140 -424.33751  3.24% 17700 72097s
   195    51 -437.61515   17 1374 -438.56140 -424.33751  3.24% 17611 72103s
   196    52 -437.66519   18 1304 -438.56140 -424.33751  3.24% 17521 72105s
   197    53 -438.11258   19 1282 -438.56140 -424.33751  3.24% 17436 72110s
   200    52 -438.10564   19 1181 -438.56140 -424.33751  3.24% 17181 72119s
   201    51     cutoff   20      -438.56140 -424.33751  3.24% 17096 72120s
   204    48     cutoff    4      -438.56140 -424.34236  3.24% 17481 76011s
   205    49 -432.26527    4 1312 -438.56140 -424.84031  3.13% 17608 77168s
   206    50 -435.12654    5 1309 -438.56140 -424.84031  3.13% 17630 77695s
   207    51 -437.74937    6 1014 -438.56140 -424.84031  3.13% 17611 77969s
   208    50     cutoff    7      -438.56140 -424.84031  3.13% 17606 78314s
   209    49     cutoff    7      -438.56140 -424.84031  3.13% 17525 78323s
   210    48     cutoff    6      -438.56140 -424.84031  3.13% 18127 82537s

Cutting planes:
  Zero half: 930

Explored 211 nodes (4099057 simplex iterations) in 86400.83 seconds
Thread count was 1 (of 80 available processors)

Solution count 7: -438.561 -449.219 -452.769 ... -11002.4

Time limit reached
Best objective -4.385613995538e+02, best bound -4.248403108911e+02, gap 3.1287%
